data/rand/rand_026.gr
p tdp 15 64
1 2
1 4
1 5
1 7
1 13
1 15
2 3
2 4
2 5
2 6
2 8
2 9
2 11
2 13
2 14
2 15
3 4
3 5
3 6
3 7
3 8
3 9
3 10
3 11
3 12
3 14
3 15
4 5
4 7
4 8
4 12
4 14
5 6
5 8
5 9
5 13
5 14
5 15
6 7
6 9
6 10
6 11
6 13
6 14
7 8
7 9
7 10
7 11
7 12
7 14
7 15
8 9
8 10
8 11
9 11
9 13
9 14
10 12
10 15
12 13
12 14
12 15
13 14
14 15
