solutions/best/rand/rand_026.sol
11
0
1
2
14
3
14
5
7
6
6
9
8
9
12
10
